NAME: test1380
TYPE: TSP
DIMENSION: 11
EDGE_WEIGHT_TYPE: EUC_2D
NODE_COORD_SECTION
1 97.22189772935496 87.67796349772776
2 62.36903024314901 20.70059218365946
3 10.708290382783037 40.7518021845548
4 51.92556286788253 45.70990434075141
5 8.747173188870805 11.926047491259018
6 68.7587525153853 67.37671980081392
7 53.1056452024965 5.019592679373197
8 87.36347038524869 3.7497349016960224
9 60.04491871084807 93.37560624307135
10 40.42461261391323 59.80786406341772
11 65.77198932572807 93.16674336260992
EOF
